NAME          BLANK   
ROWS
 N  OBJROW
 L  R0000000
COLUMNS
    C0000000  OBJROW     -290.         R0000000  972.        
    C0000001  OBJROW     -270.         R0000000  61.         
    C0000002  OBJROW     -348.         R0000000  13.         
    C0000003  OBJROW     -87.          R0000000  877.        
    C0000004  OBJROW     -373.         R0000000  937.        
    C0000005  OBJROW     -327.         R0000000  792.        
    C0000006  OBJROW     -546.         R0000000  573.        
    C0000007  OBJROW     -308.         R0000000  423.        
    C0000008  OBJROW     -293.         R0000000  255.        
    C0000009  OBJROW     -73.          R0000000  460.        
RHS
    RHS       R0000000  13564.      
BOUNDS
 BV BOUND     C0000000  1.          
 BV BOUND     C0000001  1.          
 BV BOUND     C0000002  1.          
 BV BOUND     C0000003  1.          
 BV BOUND     C0000004  1.          
 BV BOUND     C0000005  1.          
 BV BOUND     C0000006  1.          
 BV BOUND     C0000007  1.          
 BV BOUND     C0000008  1.          
 BV BOUND     C0000009  1.          
ENDATA
